84 84
8 63
22 2
10 69
40 54
14 19
3 45
26 60
27 71
17 24
18 6
28 8
21 77
4 68
19 39
10 58
8 22
30 67
37 42
4 84
16 4
34 10
27 23
31 53
41 26
16 61
18 72
42 30
24 55
1 28
33 7
9 35
39 48
19 34
37 47
23 74
25 82
12 18
5 11
41 46
25 76
15 3
42 25
26 27
35 78
12 70
11 17
31 5
11 59
14 15
3 12
21 40
28 79
36 41
22 1
35 81
23 37
30 16
38 62
13 9
39 36
29 51
20 75
6 65
7 52
24 29
1 73
32 32
7 83
38 57
2 50
6 43
32 49
40 13
34 31
13 33
36 80
20 64
15 66
17 56
9 14
29 44
5 21
2 38
33 20
